Version identifier: 20.1.0.0 | 2020-11-10 | 9bedb6d68
Tried aggregator 2 times.
MIP Presolve eliminated 906 rows and 540 columns.
MIP Presolve modified 1718 coefficients.
Aggregator did 108 substitutions.
Reduced MIP has 692 rows, 559 columns, and 2201 nonzeros.
Reduced MIP has 138 binaries, 421 generals, 0 SOSs, and 0 indicators.
Presolve time = 0.01 sec. (3.73 ticks)
Found incumbent of value 690.000000 after 0.02 sec. (5.74 ticks)
Probing fixed 20 vars, tightened 143 bounds.
Probing time = 0.00 sec. (0.54 ticks)
Tried aggregator 1 time.
Detecting symmetries...
MIP Presolve eliminated 300 rows and 20 columns.
MIP Presolve modified 34 coefficients.
Reduced MIP has 392 rows, 539 columns, and 1281 nonzeros.
Reduced MIP has 200 binaries, 339 generals, 0 SOSs, and 0 indicators.
Presolve time = 0.00 sec. (1.44 ticks)
Probing time = 0.00 sec. (0.12 ticks)
Clique table members: 41.
MIP emphasis: balance optimality and feasibility.
MIP search method: dynamic search.
Parallel mode: deterministic, using up to 24 threads.
Root relaxation solution time = 0.00 sec. (1.02 ticks)

        Nodes                                         Cuts/
   Node  Left     Objective  IInf  Best Integer    Best Bound    ItCnt     Gap

*     0+    0                          690.0000        0.0000           100.00%
*     0+    0                           24.0000        0.0000           100.00%
      0     0        0.0000    33       24.0000        0.0000      131  100.00%
*     0+    0                           13.0000        0.0000           100.00%
      0     0        1.0000    29       13.0000      Cuts: 49      192   92.31%
*     0+    0                           11.0000        1.0000            90.91%
      0     0        1.2500    62       11.0000      Cuts: 52      233   88.64%
      0     0        2.0000    67       11.0000      Cuts: 34      261   81.82%
      0     0        2.0000    78       11.0000      Cuts: 31      285   81.82%
      0     0        2.0000    70       11.0000      Cuts: 31      307   81.82%
      0     0        2.0000    77       11.0000      Cuts: 41      343   81.82%
*     0+    0                            8.0000        2.0000            75.00%
      0     0        cutoff              8.0000        8.0000      343    0.00%
Elapsed time = 0.16 sec. (43.94 ticks, tree = 0.01 MB, solutions = 5)

Implied bound cuts applied:  12
Flow cuts applied:  1
Mixed integer rounding cuts applied:  9
Zero-half cuts applied:  42
Lift and project cuts applied:  1
Gomory fractional cuts applied:  6

Root node processing (before b&c):
  Real time             =    0.16 sec. (44.02 ticks)
Parallel b&c, 24 threads:
  Real time             =    0.00 sec. (0.00 ticks)
  Sync time (average)   =    0.00 sec.
  Wait time (average)   =    0.00 sec.
                          ------------
Total (root+branch&cut) =    0.16 sec. (44.02 ticks)

Solution status = Optimal
Solution LB = 8
Solution UB = 8
Runtime = 0.16267 seconds
	Command being timed: "/home/min/git_repos/CS598MEBProject/CNT-ILP/build/cnt -s 2 ./output/k6_n20/simC_c1_k6_n20_u1_s2_del04.input-right.cnp"
	User time (seconds): 1.95
	System time (seconds): 0.04
	Percent of CPU this job got: 1116%
	Elapsed (wall clock) time (h:mm:ss or m:ss): 0:00.17
	Average shared text size (kbytes): 0
	Average unshared data size (kbytes): 0
	Average stack size (kbytes): 0
	Average total size (kbytes): 0
	Maximum resident set size (kbytes): 52536
	Average resident set size (kbytes): 0
	Major (requiring I/O) page faults: 0
	Minor (reclaiming a frame) page faults: 10156
	Voluntary context switches: 1929
	Involuntary context switches: 254
	Swaps: 0
	File system inputs: 0
	File system outputs: 16
	Socket messages sent: 0
	Socket messages received: 0
	Signals delivered: 0
	Page size (bytes): 4096
	Exit status: 0
